(declare-fun Data.Type.Coercion.Coercion () Int)
(declare-fun VV$35$$35$F$35$$35$7 () Int)
(declare-fun lq_anf$36$$35$$35$7205759403792815344$35$$35$d5EI () Int)
(declare-fun GHC.Stack.Types.FreezeCallStack () Int)
(declare-fun GHC.Word.W64$35$ () Int)
(declare-fun Data.ByteString.Internal.Type.BS () Int)
(declare-fun Data.Semigroup.Internal.Any () Int)
(declare-fun lq_karg$36$lq_anf$36$$35$$35$7205759403792815347$35$$35$d5EL$35$$35$k_$35$$35$815 () Int)
(declare-fun GHC.TypeNats.SomeNat () Int)
(declare-fun GHC.IO.Unmasked () Int)
(declare-fun GHC.MVar.MVar () Int)
(declare-fun Control.Concurrent.QSemN.$36$WQSemN () Int)
(declare-fun Data.Type.Equality.$36$WRefl () Int)
(declare-fun lq_anf$36$$35$$35$7205759403792815324$35$$35$d5Eo () Int)
(declare-fun autolen () Int)
(declare-fun lq_anf$36$$35$$35$7205759403792815334$35$$35$d5Ey () Int)
(declare-fun lq_anf$36$$35$$35$7205759403792815317$35$$35$d5Eh () Str)
(declare-fun GHC.Stack.Types.pushCallStack () Int)
(declare-fun Data.Either.Right () Int)
(declare-fun GHC.Stack.Types.PushCallStack () Int)
(declare-fun GHC.Word.W16$35$ () Int)
(declare-fun GHC.Base.$43$$43$ () Int)
(declare-fun lq_anf$36$$35$$35$7205759403792815350$35$$35$d5EO () Str)
(declare-fun GHC.Types.True () Bool)
(declare-fun GHC.Base.. () Int)
(declare-fun ds_d5DO () Int)
(declare-fun lq_anf$36$$35$$35$7205759403792815329$35$$35$d5Et () Int)
(declare-fun lq_anf$36$$35$$35$7205759403792815343$35$$35$d5EH () Int)
(declare-fun lq_anf$36$$35$$35$7205759403792815321$35$$35$d5El () Str)
(declare-fun n$35$$35$a1u8 () Int)
(declare-fun head () Int)
(declare-fun Data.Text.Encoding.Error.DecodeError () Int)
(declare-fun tail () Int)
(declare-fun GHC.Classes.compare () Int)
(declare-fun GHC.Real.quot () Int)
(declare-fun lq_karg$36$VV$35$$35$648$35$$35$k_$35$$35$649 () Int)
(declare-fun VV$35$$35$F$35$$35$3 () Int)
(declare-fun lq_tmp$36$x$35$$35$546 () Int)
(declare-fun GHC.Real.$36$W$58$$37$ () Int)
(declare-fun GHC.Float.sin () Int)
(declare-fun x_Tuple21 () Int)
(declare-fun GHC.TypeLits.SomeSymbol () Int)
(declare-fun GHC.IO.Handle.Types.FileHandle () Int)
(declare-fun GHC.Generics.K1 () Int)
(declare-fun Data.Text.Internal.$36$WText () Int)
(declare-fun Data.ByteString.Lazy.Internal.Chunk () Int)
(declare-fun VV$35$$35$F$35$$35$2 () Int)
(declare-fun RefinementHelper.filterInvalid () Int)
(declare-fun GHC.IO.Exception.ExitSuccess () Int)
(declare-fun VV$35$$35$F$35$$35$1 () Int)
(declare-fun lit$36$src$47$RefinementHelper.hs () Str)
(declare-fun lq_tmp$36$x$35$$35$849 () Int)
(declare-fun lq_karg$36$lq_anf$36$$35$$35$7205759403792815346$35$$35$d5EK$35$$35$k_$35$$35$815 () Int)
(declare-fun GHC.Real.fromRational () Int)
(declare-fun GHC.Real.recip () Int)
(declare-fun GHC.Num.abs () Int)
(declare-fun lq_tmp$36$x$35$$35$805 () Int)
(declare-fun GHC.Conc.Sync.ThreadId () Int)
(declare-fun GHC.IO.Exception.IOError () Int)
(declare-fun lq_anf$36$$35$$35$7205759403792815345$35$$35$d5EJ () Int)
(declare-fun Control.Monad.Loops.iterateWhile () Int)
(declare-fun GHC.Float.$42$$42$ () Int)
(declare-fun x_Tuple22 () Int)
(declare-fun Data.Semigroup.Internal.Alt () Int)
(declare-fun lq_tmp$36$x$35$$35$511 () Int)
(declare-fun GHC.Real.$47$ () Int)
(declare-fun Data.Typeable.Internal.$36$WSomeTypeRep () Int)
(declare-fun GHC.Base.$36$ () Int)
(declare-fun fldList () Int)
(declare-fun lq_anf$36$$35$$35$7205759403792815320$35$$35$d5Ek () Str)
(declare-fun GHC.Weak.Weak () Int)
(declare-fun GHC.Types.I$35$ () Int)
(declare-fun lq_tmp$36$x$35$$35$510 () Int)
(declare-fun lq_anf$36$$35$$35$7205759403792815332$35$$35$d5Ew () Int)
(declare-fun lq_karg$36$VV$35$$35$814$35$$35$k_$35$$35$815 () Int)
(declare-fun GHC.IO.Handle.Types.$36$WFileHandle () Int)
(declare-fun GHC.Num.negate () Int)
(declare-fun GHC.IO.Exception.ExitFailure () Int)
(declare-fun GHC.Num.Integer.IN () Int)
(declare-fun GHC.IO.Handle.Types.DuplexHandle () Int)
(declare-fun GHC.Enum.C$58$Bounded () Int)
(declare-fun lqdc$35$$35$$36$select$35$$35$GHC.Maybe.Just$35$$35$1 () Int)
(declare-fun GHC.Float.atanh () Int)
(declare-fun lq_anf$36$$35$$35$7205759403792815325$35$$35$d5Ep () Int)
(declare-fun GHC.IO.Handle.Types.$36$WDuplexHandle () Int)
(declare-fun lq_anf$36$$35$$35$7205759403792815333$35$$35$d5Ex () Str)
(declare-fun isPrime () Int)
(declare-fun GHC.IO.IOMode.ReadMode () Int)
(declare-fun GHC.Types.$58$ () Int)
(declare-fun lq_anf$36$$35$$35$7205759403792815336$35$$35$d5EA () Int)
(declare-fun lq_anf$36$$35$$35$7205759403792815316$35$$35$d5Eg () Str)
(declare-fun Data.Either.Left () Int)
(declare-fun Data.Semigroup.Internal.Sum () Int)
(declare-fun GHC.Float.atan () Int)
(declare-fun lq_tmp$36$x$35$$35$585 () Int)
(declare-fun isLeft () Int)
(declare-fun lq_karg$36$lq_anf$36$$35$$35$7205759403792815346$35$$35$d5EK$35$$35$k_$35$$35$853 () Int)
(declare-fun GHC.Float.log () Int)
(declare-fun lq_tmp$36$x$35$$35$843 () Int)
(declare-fun lq_karg$36$lq_anf$36$$35$$35$7205759403792815349$35$$35$d5EN$35$$35$k_$35$$35$815 () Bool)
(declare-fun GHC.Types.Module () Int)
(declare-fun GHC.OverloadedLabels.C$58$IsLabel () Int)
(declare-fun lit$36$Invalid () Str)
(declare-fun totalityError () Int)
(declare-fun GHC.Num.fromInteger () Int)
(declare-fun GHC.Real.fromIntegral () Int)
(declare-fun GHC.Float.asin () Int)
(declare-fun lq_karg$36$n$35$$35$a1u8$35$$35$k_$35$$35$815 () Int)
(declare-fun GHC.Classes.$61$$61$ () Int)
(declare-fun lq_anf$36$$35$$35$7205759403792815319$35$$35$d5Ej () Str)
(declare-fun Data.ByteString.Internal.Type.$36$WBS () Int)
(declare-fun GHC.Types.TrNameD () Int)
(declare-fun VV$35$$35$F$35$$35$9 () Int)
(declare-fun GHC.Types.EQ () Int)
(declare-fun lq_anf$36$$35$$35$7205759403792815349$35$$35$d5EN () Bool)
(declare-fun Data.ByteString.Lazy.Internal.$36$WChunk () Int)
(declare-fun GHC.Float.tanh () Int)
(declare-fun lq_karg$36$lq_anf$36$$35$$35$7205759403792815348$35$$35$d5EM$35$$35$k_$35$$35$815 () Bool)
(declare-fun Data.Semigroup.Internal.Dual () Int)
(declare-fun VV$35$$35$F$35$$35$8 () Int)
(declare-fun Data.Complex.$58$$43$ () Int)
(declare-fun System.Posix.Types.Fd () Int)
(declare-fun GHC.TypeNats.C$58$KnownNat () Int)
(declare-fun lq_anf$36$$35$$35$7205759403792815335$35$$35$d5Ez () Str)
(declare-fun Data.Typeable.Internal.SomeTypeRep () Int)
(declare-fun lit$36$RefinementHelper () Str)
(declare-fun GHC.Maybe.Nothing () Int)
(declare-fun GHC.Types.LT () Int)
(declare-fun VV$35$$35$F$35$$35$15 () Int)
(declare-fun Data.Tuple.snd () Int)
(declare-fun lq_anf$36$$35$$35$7205759403792815348$35$$35$d5EM () Bool)
(declare-fun Control.Concurrent.Chan.$36$WChan () Int)
(declare-fun GHC.Types.False () Bool)
(declare-fun lq_anf$36$$35$$35$7205759403792815340$35$$35$d5EE () Int)
(declare-fun maximum () Int)
(declare-fun GHC.Stack.Types.SrcLoc () Int)
(declare-fun GHC.Word.W8$35$ () Int)
(declare-fun GHC.Base.$58$$124$ () Int)
(declare-fun GHC.Types.GT () Int)
(declare-fun GHC.Real.mod () Int)
(declare-fun lq_karg$36$VV$35$$35$852$35$$35$k_$35$$35$853 () Int)
(declare-fun Data.Type.Equality.Refl () Int)
(declare-fun VV$35$$35$F$35$$35$14 () Int)
(declare-fun GHC.Classes.not () Int)
(declare-fun Control.Monad.Trans.Except.ExceptT () Int)
(declare-fun Data.Text.Internal.Text () Int)
(declare-fun GHC.Tuple.$40$$41$ () Int)
(declare-fun GHC.Types.Eq$35$ () Int)
(declare-fun lq_anf$36$$35$$35$7205759403792815323$35$$35$d5En () Int)
(declare-fun GHC.Generics.M1 () Int)
(declare-fun GHC.Float.cosh () Int)
(declare-fun lq_anf$36$$35$$35$7205759403792815347$35$$35$d5EL () Int)
(declare-fun Protolude.Panic.FatalError () Int)
(declare-fun RefinementHelper.die () Int)
(declare-fun liquid_internal_this () Int)
(declare-fun snd () Int)
(declare-fun GHC.Err.error () Int)
(declare-fun VV$35$$35$F$35$$35$16 () Str)
(declare-fun lq_anf$36$$35$$35$7205759403792815351$35$$35$d5EP () Str)
(declare-fun Data.Semigroup.Internal.Product () Int)
(declare-fun GHC.Classes.$36$fOrdInt () Int)
(declare-fun GHC.Float.tan () Int)
(declare-fun GHC.Float.acos () Int)
(declare-fun len () Int)
(declare-fun GHC.Classes.$60$ () Int)
(declare-fun lq_tmp$36$x$35$$35$861 () Int)
(declare-fun GHC.Num.Integer.IP () Int)
(declare-fun lq_anf$36$$35$$35$7205759403792815326$35$$35$d5Eq () Int)
(declare-fun lq_tmp$36$x$35$$35$630 () Int)
(declare-fun lq_karg$36$lq_anf$36$$35$$35$7205759403792815348$35$$35$d5EM$35$$35$k_$35$$35$853 () Bool)
(declare-fun Data.Typeable.Internal.C$58$Typeable () Int)
(declare-fun GHC.Classes.$62$$61$ () Int)
(declare-fun addrLen () Int)
(declare-fun cast_as_int () Int)
(declare-fun Data.Monoid.First () Int)
(declare-fun lq_anf$36$$35$$35$7205759403792815322$35$$35$d5Em () Int)
(declare-fun GHC.Maybe.Just () Int)
(declare-fun lq_anf$36$$35$$35$7205759403792815315$35$$35$d5Ef () Str)
(declare-fun Data.ByteString.Lazy.Internal.Empty () Int)
(declare-fun GHC.IO.IOMode.ReadWriteMode () Int)
(declare-fun lq_anf$36$$35$$35$7205759403792815339$35$$35$d5ED () Int)
(declare-fun GHC.ExecutionStack.Internal.Location () Int)
(declare-fun GHC.Real.divMod () Int)
(declare-fun GHC.Classes.$62$ () Int)
(declare-fun cast_as () Int)
(declare-fun VV$35$$35$F$35$$35$13 () Int)
(declare-fun Data.Monoid.Ap () Int)
(declare-fun GHC.Float.pi () Int)
(declare-fun GHC.Float.acosh () Int)
(declare-fun Data.Functor.Const.Const () Int)
(declare-fun GHC.Classes.min () Int)
(declare-fun lq_karg$36$lq_anf$36$$35$$35$7205759403792815349$35$$35$d5EN$35$$35$k_$35$$35$853 () Bool)
(declare-fun lq_tmp$36$x$35$$35$862 () Int)
(declare-fun lq_karg$36$n$35$$35$a1u8$35$$35$k_$35$$35$853 () Int)
(declare-fun fix$36$$36$dIP_a1v9 () Int)
(declare-fun GHC.Num.Integer.IS () Int)
(declare-fun VV$35$$35$F$35$$35$12 () Int)
(declare-fun GHC.Classes.$38$$38$ () Int)
(declare-fun GHC.Float.sqrt () Int)
(declare-fun lq_tmp$36$x$35$$35$552 () Int)
(declare-fun GHC.Float.logBase () Int)
(declare-fun lq_anf$36$$35$$35$7205759403792815338$35$$35$d5EC () Int)
(declare-fun GHC.Float.sinh () Int)
(declare-fun Data.Functor.Identity.Identity () Int)
(declare-fun GHC.Real.quotRem () Int)
(declare-fun lq_anf$36$$35$$35$7205759403792815342$35$$35$d5EG () Int)
(declare-fun lq_anf$36$$35$$35$7205759403792815346$35$$35$d5EK () Int)
(declare-fun GHC.Classes.max () Int)
(declare-fun papp3 () Int)
(declare-fun lq_anf$36$$35$$35$7205759403792815328$35$$35$d5Es () Int)
(declare-fun GHC.Real.div () Int)
(declare-fun GHC.Real.$94$ () Int)
(declare-fun GHC.Types.TrNameS () Int)
(declare-fun fst () Int)
(declare-fun GHC.Exception.Type.SomeException () Int)
(declare-fun Control.Concurrent.Chan.Chan () Int)
(declare-fun lq_karg$36$lq_anf$36$$35$$35$7205759403792815351$35$$35$d5EP$35$$35$k_$35$$35$853 () Str)
(declare-fun Control.Concurrent.QSem.QSem () Int)
(declare-fun GHC.IO.IOMode.WriteMode () Int)
(declare-fun lit$36$error () Str)
(declare-fun papp2 () Int)
(declare-fun GHC.TypeLits.C$58$KnownSymbol () Int)
(declare-fun GHC.Num.$45$ () Int)
(declare-fun GHC.IO.IOMode.AppendMode () Int)
(declare-fun lq_anf$36$$35$$35$7205759403792815330$35$$35$d5Eu () Int)
(declare-fun GHC.ExecutionStack.Internal.SrcLoc () Int)
(declare-fun GHC.Types.C$35$ () Int)
(declare-fun Data.Complex.$36$W$58$$43$ () Int)
(declare-fun papp1 () Int)
(declare-fun Data.Tuple.fst () Int)
(declare-fun GHC.IO.MaskedUninterruptible () Int)
(declare-fun lq_karg$36$lq_anf$36$$35$$35$7205759403792815347$35$$35$d5EL$35$$35$k_$35$$35$853 () Int)
(declare-fun lq_anf$36$$35$$35$7205759403792815327$35$$35$d5Er () Int)
(declare-fun lit$36$grfn$45$1.0.0.0$45$inplace () Str)
(declare-fun Data.Text.Internal.Lazy.$36$WChunk () Int)
(declare-fun lq_karg$36$lq_anf$36$$35$$35$7205759403792815350$35$$35$d5EO$35$$35$k_$35$$35$853 () Str)
(declare-fun GHC.Float.asinh () Int)
(declare-fun lq_anf$36$$35$$35$7205759403792815318$35$$35$d5Ei () Str)
(declare-fun GHC.Generics.Comp1 () Int)
(declare-fun GHC.IO.MaskedInterruptible () Int)
(declare-fun lq_anf$36$$35$$35$7205759403792815314$35$$35$d5Ee () Str)
(declare-fun GHC.Classes.$47$$61$ () Int)
(declare-fun Data.Monoid.Last () Int)
(declare-fun GHC.Float.cos () Int)
(declare-fun GHC.Float.exp () Int)
(declare-fun papp7 () Int)
(declare-fun GHC.Num.$36$fNumInt () Int)
(declare-fun GHC.Types.$91$$93$ () Int)
(declare-fun RefinementHelper.$36$trModule () Int)
(declare-fun GHC.Real.toInteger () Int)
(declare-fun GHC.Real.$58$$37$ () Int)
(declare-fun lq_anf$36$$35$$35$7205759403792815337$35$$35$d5EB () Int)
(declare-fun GHC.Stack.Types.EmptyCallStack () Int)
(declare-fun ds_d5DP () Int)
(declare-fun GHC.Real.rem () Int)
(declare-fun papp6 () Int)
(declare-fun Data.Text.Internal.Lazy.Chunk () Int)
(declare-fun Data.Text.Internal.Lazy.Empty () Int)
(declare-fun RefinementHelper.intsGte2 () Int)
(declare-fun GHC.Stack.Types.emptyCallStack () Int)
(declare-fun GHC.Classes.C$58$IP () Int)
(declare-fun lq_anf$36$$35$$35$7205759403792815341$35$$35$d5EF () Int)
(declare-fun Control.Applicative.ZipList () Int)
(declare-fun GHC.CString.unpackCString$35$ () Int)
(declare-fun papp5 () Int)
(declare-fun GHC.Num.$42$ () Int)
(declare-fun GHC.Classes.$60$$61$ () Int)
(declare-fun GHC.Word.W32$35$ () Int)
(declare-fun GHC.Classes.$124$$124$ () Int)
(declare-fun GHC.Tuple.$40$$44$$41$ () Int)
(declare-fun product () Int)
(declare-fun papp4 () Int)
(declare-fun Control.Concurrent.QSemN.QSemN () Int)
(declare-fun Data.Text.Encoding.Error.EncodeError () Int)
(declare-fun lq_tmp$36$x$35$$35$509 () Int)
(declare-fun RefinementHelper.pow2 () Int)
(declare-fun GHC.Num.$43$ () Int)
(declare-fun Data.Semigroup.Internal.All () Int)
(declare-fun lq_anf$36$$35$$35$7205759403792815331$35$$35$d5Ev () Int)
(declare-fun lq_tmp$36$x$35$$35$761 () Int)
(declare-fun apply$35$$35$15 (Int (_ BitVec 32)) Int)
(declare-fun apply$35$$35$4 (Int Int) (_ BitVec 64))
(declare-fun apply$35$$35$20 (Int (_ BitVec 64)) Int)
(declare-fun apply$35$$35$3 (Int Int) (_ BitVec 32))
(declare-fun apply$35$$35$18 (Int (_ BitVec 32)) (_ BitVec 32))
(declare-fun apply$35$$35$24 (Int (_ BitVec 64)) (_ BitVec 64))
(declare-fun apply$35$$35$19 (Int (_ BitVec 32)) (_ BitVec 64))
(declare-fun apply$35$$35$6 (Int Bool) Bool)
(declare-fun apply$35$$35$23 (Int (_ BitVec 64)) (_ BitVec 32))
(declare-fun apply$35$$35$0 (Int Int) Int)
(declare-fun apply$35$$35$12 (Int Str) Str)
(declare-fun apply$35$$35$7 (Int Bool) Str)
(declare-fun apply$35$$35$11 (Int Str) Bool)
(declare-fun apply$35$$35$17 (Int (_ BitVec 32)) Str)
(declare-fun apply$35$$35$13 (Int Str) (_ BitVec 32))
(declare-fun apply$35$$35$22 (Int (_ BitVec 64)) Str)
(declare-fun apply$35$$35$14 (Int Str) (_ BitVec 64))
(declare-fun apply$35$$35$16 (Int (_ BitVec 32)) Bool)
(declare-fun apply$35$$35$8 (Int Bool) (_ BitVec 32))
(declare-fun apply$35$$35$21 (Int (_ BitVec 64)) Bool)
(declare-fun apply$35$$35$9 (Int Bool) (_ BitVec 64))
(declare-fun apply$35$$35$5 (Int Bool) Int)
(declare-fun apply$35$$35$1 (Int Int) Bool)
(declare-fun apply$35$$35$2 (Int Int) Str)
(declare-fun apply$35$$35$10 (Int Str) Int)
(declare-fun coerce$35$$35$15 ((_ BitVec 32)) Int)
(declare-fun coerce$35$$35$4 (Int) (_ BitVec 64))
(declare-fun coerce$35$$35$20 ((_ BitVec 64)) Int)
(declare-fun coerce$35$$35$3 (Int) (_ BitVec 32))
(declare-fun coerce$35$$35$18 ((_ BitVec 32)) (_ BitVec 32))
(declare-fun coerce$35$$35$24 ((_ BitVec 64)) (_ BitVec 64))
(declare-fun coerce$35$$35$19 ((_ BitVec 32)) (_ BitVec 64))
(declare-fun coerce$35$$35$6 (Bool) Bool)
(declare-fun coerce$35$$35$23 ((_ BitVec 64)) (_ BitVec 32))
(declare-fun coerce$35$$35$0 (Int) Int)
(declare-fun coerce$35$$35$12 (Str) Str)
(declare-fun coerce$35$$35$7 (Bool) Str)
(declare-fun coerce$35$$35$11 (Str) Bool)
(declare-fun coerce$35$$35$17 ((_ BitVec 32)) Str)
(declare-fun coerce$35$$35$13 (Str) (_ BitVec 32))
(declare-fun coerce$35$$35$22 ((_ BitVec 64)) Str)
(declare-fun coerce$35$$35$14 (Str) (_ BitVec 64))
(declare-fun coerce$35$$35$16 ((_ BitVec 32)) Bool)
(declare-fun coerce$35$$35$8 (Bool) (_ BitVec 32))
(declare-fun coerce$35$$35$21 ((_ BitVec 64)) Bool)
(declare-fun coerce$35$$35$9 (Bool) (_ BitVec 64))
(declare-fun coerce$35$$35$5 (Bool) Int)
(declare-fun coerce$35$$35$1 (Int) Bool)
(declare-fun coerce$35$$35$2 (Int) Str)
(declare-fun coerce$35$$35$10 (Str) Int)
(declare-fun smt_lambda$35$$35$15 ((_ BitVec 32) Int) Int)
(declare-fun smt_lambda$35$$35$4 (Int (_ BitVec 64)) Int)
(declare-fun smt_lambda$35$$35$20 ((_ BitVec 64) Int) Int)
(declare-fun smt_lambda$35$$35$3 (Int (_ BitVec 32)) Int)
(declare-fun smt_lambda$35$$35$18 ((_ BitVec 32) (_ BitVec 32)) Int)
(declare-fun smt_lambda$35$$35$24 ((_ BitVec 64) (_ BitVec 64)) Int)
(declare-fun smt_lambda$35$$35$19 ((_ BitVec 32) (_ BitVec 64)) Int)
(declare-fun smt_lambda$35$$35$6 (Bool Bool) Int)
(declare-fun smt_lambda$35$$35$23 ((_ BitVec 64) (_ BitVec 32)) Int)
(declare-fun smt_lambda$35$$35$0 (Int Int) Int)
(declare-fun smt_lambda$35$$35$12 (Str Str) Int)
(declare-fun smt_lambda$35$$35$7 (Bool Str) Int)
(declare-fun smt_lambda$35$$35$11 (Str Bool) Int)
(declare-fun smt_lambda$35$$35$17 ((_ BitVec 32) Str) Int)
(declare-fun smt_lambda$35$$35$13 (Str (_ BitVec 32)) Int)
(declare-fun smt_lambda$35$$35$22 ((_ BitVec 64) Str) Int)
(declare-fun smt_lambda$35$$35$14 (Str (_ BitVec 64)) Int)
(declare-fun smt_lambda$35$$35$16 ((_ BitVec 32) Bool) Int)
(declare-fun smt_lambda$35$$35$8 (Bool (_ BitVec 32)) Int)
(declare-fun smt_lambda$35$$35$21 ((_ BitVec 64) Bool) Int)
(declare-fun smt_lambda$35$$35$9 (Bool (_ BitVec 64)) Int)
(declare-fun smt_lambda$35$$35$5 (Bool Int) Int)
(declare-fun smt_lambda$35$$35$1 (Int Bool) Int)
(declare-fun smt_lambda$35$$35$2 (Int Str) Int)
(declare-fun smt_lambda$35$$35$10 (Str Int) Int)
(declare-fun lam_arg$35$$35$1$35$$35$15 () (_ BitVec 32))
(declare-fun lam_arg$35$$35$2$35$$35$15 () (_ BitVec 32))
(declare-fun lam_arg$35$$35$3$35$$35$15 () (_ BitVec 32))
(declare-fun lam_arg$35$$35$4$35$$35$15 () (_ BitVec 32))
(declare-fun lam_arg$35$$35$5$35$$35$15 () (_ BitVec 32))
(declare-fun lam_arg$35$$35$6$35$$35$15 () (_ BitVec 32))
(declare-fun lam_arg$35$$35$7$35$$35$15 () (_ BitVec 32))
(declare-fun lam_arg$35$$35$1$35$$35$20 () (_ BitVec 64))
(declare-fun lam_arg$35$$35$2$35$$35$20 () (_ BitVec 64))
(declare-fun lam_arg$35$$35$3$35$$35$20 () (_ BitVec 64))
(declare-fun lam_arg$35$$35$4$35$$35$20 () (_ BitVec 64))
(declare-fun lam_arg$35$$35$5$35$$35$20 () (_ BitVec 64))
(declare-fun lam_arg$35$$35$6$35$$35$20 () (_ BitVec 64))
(declare-fun lam_arg$35$$35$7$35$$35$20 () (_ BitVec 64))
(declare-fun lam_arg$35$$35$1$35$$35$0 () Int)
(declare-fun lam_arg$35$$35$2$35$$35$0 () Int)
(declare-fun lam_arg$35$$35$3$35$$35$0 () Int)
(declare-fun lam_arg$35$$35$4$35$$35$0 () Int)
(declare-fun lam_arg$35$$35$5$35$$35$0 () Int)
(declare-fun lam_arg$35$$35$6$35$$35$0 () Int)
(declare-fun lam_arg$35$$35$7$35$$35$0 () Int)
(declare-fun lam_arg$35$$35$1$35$$35$5 () Bool)
(declare-fun lam_arg$35$$35$2$35$$35$5 () Bool)
(declare-fun lam_arg$35$$35$3$35$$35$5 () Bool)
(declare-fun lam_arg$35$$35$4$35$$35$5 () Bool)
(declare-fun lam_arg$35$$35$5$35$$35$5 () Bool)
(declare-fun lam_arg$35$$35$6$35$$35$5 () Bool)
(declare-fun lam_arg$35$$35$7$35$$35$5 () Bool)
(declare-fun lam_arg$35$$35$1$35$$35$10 () Str)
(declare-fun lam_arg$35$$35$2$35$$35$10 () Str)
(declare-fun lam_arg$35$$35$3$35$$35$10 () Str)
(declare-fun lam_arg$35$$35$4$35$$35$10 () Str)
(declare-fun lam_arg$35$$35$5$35$$35$10 () Str)
(declare-fun lam_arg$35$$35$6$35$$35$10 () Str)
(declare-fun lam_arg$35$$35$7$35$$35$10 () Str)
(assert (distinct GHC.IO.MaskedInterruptible GHC.IO.MaskedUninterruptible GHC.IO.Unmasked))

(assert (distinct lit$36$grfn$45$1.0.0.0$45$inplace lit$36$error lit$36$RefinementHelper lit$36$Invalid lit$36$src$47$RefinementHelper.hs))


(assert (distinct GHC.Types.False GHC.Types.True))


(assert (distinct GHC.IO.IOMode.AppendMode GHC.IO.IOMode.WriteMode GHC.IO.IOMode.ReadWriteMode GHC.IO.IOMode.ReadMode))


(assert (distinct GHC.Types.GT GHC.Types.LT GHC.Types.EQ))
(assert (= (strLen lit$36$src$47$RefinementHelper.hs) 23))
(assert (= (strLen lit$36$Invalid) 7))
(assert (= (strLen lit$36$RefinementHelper) 16))
(assert (= (strLen lit$36$error) 5))
(assert (= (strLen lit$36$grfn$45$1.0.0.0$45$inplace) 20))
(push 1)
(define-fun b$36$$35$$35$128 () Bool (and (= lq_anf$36$$35$$35$7205759403792815337$35$$35$d5EB ds_d5DO) (>= lq_anf$36$$35$$35$7205759403792815337$35$$35$d5EB 0)))
(define-fun b$36$$35$$35$129 () Bool (and (= lq_anf$36$$35$$35$7205759403792815337$35$$35$d5EB ds_d5DO) (>= lq_anf$36$$35$$35$7205759403792815337$35$$35$d5EB 0)))
(define-fun b$36$$35$$35$99 () Bool (= lq_anf$36$$35$$35$7205759403792815314$35$$35$d5Ee lit$36$error))
(define-fun b$36$$35$$35$131 () Bool (and (= lq_anf$36$$35$$35$7205759403792815337$35$$35$d5EB ds_d5DO) (= lq_anf$36$$35$$35$7205759403792815337$35$$35$d5EB ds_d5DP) (= lq_anf$36$$35$$35$7205759403792815337$35$$35$d5EB ds_d5DP) (>= lq_anf$36$$35$$35$7205759403792815337$35$$35$d5EB 0)))
(define-fun b$36$$35$$35$100 () Bool (and (= (apply$35$$35$10 (as len Int) lq_anf$36$$35$$35$7205759403792815315$35$$35$d5Ef) (strLen lq_anf$36$$35$$35$7205759403792815314$35$$35$d5Ee)) (>= (apply$35$$35$10 (as len Int) lq_anf$36$$35$$35$7205759403792815315$35$$35$d5Ef) 0) (= lq_anf$36$$35$$35$7205759403792815315$35$$35$d5Ef lq_anf$36$$35$$35$7205759403792815314$35$$35$d5Ee)))
(define-fun b$36$$35$$35$132 () Bool (= lq_anf$36$$35$$35$7205759403792815338$35$$35$d5EC ds_d5DP))
(define-fun b$36$$35$$35$101 () Bool (= lq_anf$36$$35$$35$7205759403792815316$35$$35$d5Eg lit$36$grfn$45$1.0.0.0$45$inplace))
(define-fun b$36$$35$$35$133 () Bool (and (= lq_anf$36$$35$$35$7205759403792815338$35$$35$d5EC ds_d5DP) (not (= lq_anf$36$$35$$35$7205759403792815338$35$$35$d5EC 0))))
(define-fun b$36$$35$$35$102 () Bool (and (= (apply$35$$35$10 (as len Int) lq_anf$36$$35$$35$7205759403792815317$35$$35$d5Eh) (strLen lq_anf$36$$35$$35$7205759403792815316$35$$35$d5Eg)) (>= (apply$35$$35$10 (as len Int) lq_anf$36$$35$$35$7205759403792815317$35$$35$d5Eh) 0) (= lq_anf$36$$35$$35$7205759403792815317$35$$35$d5Eh lq_anf$36$$35$$35$7205759403792815316$35$$35$d5Eg)))
(define-fun b$36$$35$$35$134 () Bool (= lq_anf$36$$35$$35$7205759403792815339$35$$35$d5ED 2))
(define-fun b$36$$35$$35$71 () Bool (not GHC.Types.False))
(define-fun b$36$$35$$35$103 () Bool (= lq_anf$36$$35$$35$7205759403792815318$35$$35$d5Ei lit$36$RefinementHelper))
(define-fun b$36$$35$$35$135 () Bool (= lq_anf$36$$35$$35$7205759403792815340$35$$35$d5EE lq_anf$36$$35$$35$7205759403792815339$35$$35$d5ED))
(define-fun b$36$$35$$35$104 () Bool (and (= (apply$35$$35$10 (as len Int) lq_anf$36$$35$$35$7205759403792815319$35$$35$d5Ej) (strLen lq_anf$36$$35$$35$7205759403792815318$35$$35$d5Ei)) (>= (apply$35$$35$10 (as len Int) lq_anf$36$$35$$35$7205759403792815319$35$$35$d5Ej) 0) (= lq_anf$36$$35$$35$7205759403792815319$35$$35$d5Ej lq_anf$36$$35$$35$7205759403792815318$35$$35$d5Ei)))
(define-fun b$36$$35$$35$136 () Bool (= lq_anf$36$$35$$35$7205759403792815341$35$$35$d5EF 1))
(define-fun b$36$$35$$35$105 () Bool (= lq_anf$36$$35$$35$7205759403792815320$35$$35$d5Ek lit$36$src$47$RefinementHelper.hs))
(define-fun b$36$$35$$35$137 () Bool (= lq_anf$36$$35$$35$7205759403792815342$35$$35$d5EG lq_anf$36$$35$$35$7205759403792815341$35$$35$d5EF))
(define-fun b$36$$35$$35$106 () Bool (and (= (apply$35$$35$10 (as len Int) lq_anf$36$$35$$35$7205759403792815321$35$$35$d5El) (strLen lq_anf$36$$35$$35$7205759403792815320$35$$35$d5Ek)) (>= (apply$35$$35$10 (as len Int) lq_anf$36$$35$$35$7205759403792815321$35$$35$d5El) 0) (= lq_anf$36$$35$$35$7205759403792815321$35$$35$d5El lq_anf$36$$35$$35$7205759403792815320$35$$35$d5Ek)))
(define-fun b$36$$35$$35$138 () Bool (= lq_anf$36$$35$$35$7205759403792815343$35$$35$d5EH (- ds_d5DO lq_anf$36$$35$$35$7205759403792815342$35$$35$d5EG)))
(define-fun b$36$$35$$35$107 () Bool (= lq_anf$36$$35$$35$7205759403792815322$35$$35$d5Em 57))
(define-fun b$36$$35$$35$139 () Bool (and (= lq_anf$36$$35$$35$7205759403792815344$35$$35$d5EI (apply$35$$35$0 RefinementHelper.pow2 lq_anf$36$$35$$35$7205759403792815343$35$$35$d5EH)) (= lq_anf$36$$35$$35$7205759403792815344$35$$35$d5EI (ite (= 0 lq_anf$36$$35$$35$7205759403792815343$35$$35$d5EH) 1 (Z3_OP_MUL 2 (apply$35$$35$0 RefinementHelper.pow2 (- lq_anf$36$$35$$35$7205759403792815343$35$$35$d5EH 1))))) (>= lq_anf$36$$35$$35$7205759403792815344$35$$35$d5EI 0)))
(define-fun b$36$$35$$35$108 () Bool (= lq_anf$36$$35$$35$7205759403792815323$35$$35$d5En lq_anf$36$$35$$35$7205759403792815322$35$$35$d5Em))
(define-fun b$36$$35$$35$140 () Bool (and (= lq_anf$36$$35$$35$7205759403792815338$35$$35$d5EC 0) (= lq_anf$36$$35$$35$7205759403792815338$35$$35$d5EC ds_d5DP)))
(define-fun b$36$$35$$35$109 () Bool (= lq_anf$36$$35$$35$7205759403792815324$35$$35$d5Eo 7))
(define-fun b$36$$35$$35$141 () Bool (= lq_anf$36$$35$$35$7205759403792815345$35$$35$d5EJ 1))
(define-fun b$36$$35$$35$110 () Bool (= lq_anf$36$$35$$35$7205759403792815325$35$$35$d5Ep lq_anf$36$$35$$35$7205759403792815324$35$$35$d5Eo))
(define-fun b$36$$35$$35$111 () Bool (= lq_anf$36$$35$$35$7205759403792815326$35$$35$d5Eq 57))
(define-fun b$36$$35$$35$143 () Bool (= lq_anf$36$$35$$35$7205759403792815346$35$$35$d5EK 2))
(define-fun b$36$$35$$35$175 () Bool (and (= VV$35$$35$F$35$$35$1 lq_tmp$36$x$35$$35$861) (<= 2 VV$35$$35$F$35$$35$1)))
(define-fun b$36$$35$$35$112 () Bool (= lq_anf$36$$35$$35$7205759403792815327$35$$35$d5Er lq_anf$36$$35$$35$7205759403792815326$35$$35$d5Eq))
(define-fun b$36$$35$$35$144 () Bool (= lq_anf$36$$35$$35$7205759403792815347$35$$35$d5EL lq_anf$36$$35$$35$7205759403792815346$35$$35$d5EK))
(define-fun b$36$$35$$35$113 () Bool (= lq_anf$36$$35$$35$7205759403792815328$35$$35$d5Es 12))
(define-fun b$36$$35$$35$145 () Bool (= lq_anf$36$$35$$35$7205759403792815348$35$$35$d5EM (< n$35$$35$a1u8 lq_anf$36$$35$$35$7205759403792815347$35$$35$d5EL)))
(define-fun b$36$$35$$35$114 () Bool (= lq_anf$36$$35$$35$7205759403792815329$35$$35$d5Et lq_anf$36$$35$$35$7205759403792815328$35$$35$d5Es))
(define-fun b$36$$35$$35$146 () Bool (and (= lq_anf$36$$35$$35$7205759403792815349$35$$35$d5EN (< n$35$$35$a1u8 lq_anf$36$$35$$35$7205759403792815347$35$$35$d5EL)) (= lq_anf$36$$35$$35$7205759403792815349$35$$35$d5EN lq_anf$36$$35$$35$7205759403792815348$35$$35$d5EM)))
(define-fun b$36$$35$$35$147 () Bool (and (= lq_anf$36$$35$$35$7205759403792815349$35$$35$d5EN (< n$35$$35$a1u8 lq_anf$36$$35$$35$7205759403792815347$35$$35$d5EL)) (= lq_anf$36$$35$$35$7205759403792815349$35$$35$d5EN lq_anf$36$$35$$35$7205759403792815348$35$$35$d5EM)))
(define-fun b$36$$35$$35$148 () Bool (and (not lq_anf$36$$35$$35$7205759403792815349$35$$35$d5EN) (= lq_anf$36$$35$$35$7205759403792815349$35$$35$d5EN (< n$35$$35$a1u8 lq_anf$36$$35$$35$7205759403792815347$35$$35$d5EL)) (= lq_anf$36$$35$$35$7205759403792815349$35$$35$d5EN lq_anf$36$$35$$35$7205759403792815348$35$$35$d5EM)))
(define-fun b$36$$35$$35$180 () Bool (= VV$35$$35$F$35$$35$9 n$35$$35$a1u8))
(define-fun b$36$$35$$35$117 () Bool (and (= (apply$35$$35$2 (as fst Int) lq_anf$36$$35$$35$7205759403792815331$35$$35$d5Ev) lq_anf$36$$35$$35$7205759403792815315$35$$35$d5Ef) (= (apply$35$$35$0 (as snd Int) lq_anf$36$$35$$35$7205759403792815331$35$$35$d5Ev) lq_anf$36$$35$$35$7205759403792815330$35$$35$d5Eu) (= (apply$35$$35$2 (as x_Tuple21 Int) lq_anf$36$$35$$35$7205759403792815331$35$$35$d5Ev) lq_anf$36$$35$$35$7205759403792815315$35$$35$d5Ef) (= (apply$35$$35$0 (as x_Tuple22 Int) lq_anf$36$$35$$35$7205759403792815331$35$$35$d5Ev) lq_anf$36$$35$$35$7205759403792815330$35$$35$d5Eu)))
(define-fun b$36$$35$$35$149 () Bool (and (= lq_anf$36$$35$$35$7205759403792815349$35$$35$d5EN (< n$35$$35$a1u8 lq_anf$36$$35$$35$7205759403792815347$35$$35$d5EL)) (= lq_anf$36$$35$$35$7205759403792815349$35$$35$d5EN lq_anf$36$$35$$35$7205759403792815348$35$$35$d5EM)))
(define-fun b$36$$35$$35$181 () Bool (= VV$35$$35$F$35$$35$12 lq_anf$36$$35$$35$7205759403792815345$35$$35$d5EJ))
(define-fun b$36$$35$$35$86 () Bool GHC.Types.True)
(define-fun b$36$$35$$35$150 () Bool (and lq_anf$36$$35$$35$7205759403792815349$35$$35$d5EN (= lq_anf$36$$35$$35$7205759403792815349$35$$35$d5EN (< n$35$$35$a1u8 lq_anf$36$$35$$35$7205759403792815347$35$$35$d5EL)) (= lq_anf$36$$35$$35$7205759403792815349$35$$35$d5EN lq_anf$36$$35$$35$7205759403792815348$35$$35$d5EM)))
(define-fun b$36$$35$$35$182 () Bool (= VV$35$$35$F$35$$35$13 (Z3_OP_MUL lq_anf$36$$35$$35$7205759403792815340$35$$35$d5EE lq_anf$36$$35$$35$7205759403792815344$35$$35$d5EI)))
(define-fun b$36$$35$$35$151 () Bool (= lq_anf$36$$35$$35$7205759403792815350$35$$35$d5EO lit$36$Invalid))
(define-fun b$36$$35$$35$183 () Bool (and (= VV$35$$35$F$35$$35$14 lq_anf$36$$35$$35$7205759403792815343$35$$35$d5EH) (= VV$35$$35$F$35$$35$14 (- ds_d5DO lq_anf$36$$35$$35$7205759403792815342$35$$35$d5EG))))
(define-fun b$36$$35$$35$152 () Bool (and (= (apply$35$$35$10 (as len Int) lq_anf$36$$35$$35$7205759403792815351$35$$35$d5EP) (strLen lq_anf$36$$35$$35$7205759403792815350$35$$35$d5EO)) (>= (apply$35$$35$10 (as len Int) lq_anf$36$$35$$35$7205759403792815351$35$$35$d5EP) 0) (= lq_anf$36$$35$$35$7205759403792815351$35$$35$d5EP lq_anf$36$$35$$35$7205759403792815350$35$$35$d5EO)))
(define-fun b$36$$35$$35$121 () Bool (= lq_anf$36$$35$$35$7205759403792815333$35$$35$d5Ex lit$36$grfn$45$1.0.0.0$45$inplace))
(define-fun b$36$$35$$35$185 () Bool false)
(define-fun b$36$$35$$35$123 () Bool (= lq_anf$36$$35$$35$7205759403792815335$35$$35$d5Ez lit$36$RefinementHelper))
(define-fun b$36$$35$$35$127 () Bool (>= ds_d5DO 0))
(push 1)
(assert (and true b$36$$35$$35$71 b$36$$35$$35$86 b$36$$35$$35$121 b$36$$35$$35$123))
(push 1)
(assert (not (= 0 1)))
(check-sat)
; SMT Says: Sat
(pop 1)
(pop 1)
(push 1)
(push 1)
(assert (and true b$36$$35$$35$71 b$36$$35$$35$175 b$36$$35$$35$86))
(push 1)
(assert (not (<= 2 VV$35$$35$F$35$$35$1)))
(check-sat)
; SMT Says: Unsat
(pop 1)
(pop 1)
(push 1)
(assert (and false b$36$$35$$35$71 b$36$$35$$35$143 b$36$$35$$35$144 b$36$$35$$35$145 b$36$$35$$35$146 b$36$$35$$35$149 b$36$$35$$35$86 b$36$$35$$35$150 b$36$$35$$35$151 b$36$$35$$35$152))
(push 1)
(assert (not (= VV$35$$35$F$35$$35$2 n$35$$35$a1u8)))
(check-sat)
; SMT Says: Unsat
(pop 1)
(pop 1)
(push 1)
(assert (and false b$36$$35$$35$71 b$36$$35$$35$143 b$36$$35$$35$144 b$36$$35$$35$145 b$36$$35$$35$146 b$36$$35$$35$149 b$36$$35$$35$86 b$36$$35$$35$150 b$36$$35$$35$151 b$36$$35$$35$152))
(push 1)
(assert (not (<= 2 VV$35$$35$F$35$$35$3)))
(check-sat)
; SMT Says: Unsat
(pop 1)
(pop 1)
(push 1)
(assert (and (exists ((lq_karg$36$lq_anf$36$$35$$35$7205759403792815347$35$$35$d5EL$35$$35$k_$35$$35$815 Int) (lq_karg$36$lq_anf$36$$35$$35$7205759403792815346$35$$35$d5EK$35$$35$k_$35$$35$815 Int) (lq_karg$36$VV$35$$35$814$35$$35$k_$35$$35$815 Int) (lq_karg$36$lq_anf$36$$35$$35$7205759403792815349$35$$35$d5EN$35$$35$k_$35$$35$815 Bool) (lq_karg$36$n$35$$35$a1u8$35$$35$k_$35$$35$815 Int) (lq_karg$36$lq_anf$36$$35$$35$7205759403792815348$35$$35$d5EM$35$$35$k_$35$$35$815 Bool)) (and (= lq_karg$36$VV$35$$35$814$35$$35$k_$35$$35$815 VV$35$$35$F$35$$35$7) (= lq_karg$36$lq_anf$36$$35$$35$7205759403792815346$35$$35$d5EK$35$$35$k_$35$$35$815 lq_anf$36$$35$$35$7205759403792815346$35$$35$d5EK) (= lq_karg$36$lq_anf$36$$35$$35$7205759403792815347$35$$35$d5EL$35$$35$k_$35$$35$815 lq_anf$36$$35$$35$7205759403792815347$35$$35$d5EL) (= lq_karg$36$lq_anf$36$$35$$35$7205759403792815348$35$$35$d5EM$35$$35$k_$35$$35$815 lq_anf$36$$35$$35$7205759403792815348$35$$35$d5EM) (= lq_karg$36$lq_anf$36$$35$$35$7205759403792815349$35$$35$d5EN$35$$35$k_$35$$35$815 lq_anf$36$$35$$35$7205759403792815349$35$$35$d5EN) (= lq_karg$36$n$35$$35$a1u8$35$$35$k_$35$$35$815 n$35$$35$a1u8) (exists ((VV$35$$35$F$35$$35$9 Int)) (and (= VV$35$$35$F$35$$35$9 n$35$$35$a1u8) (= lq_karg$36$VV$35$$35$814$35$$35$k_$35$$35$815 VV$35$$35$F$35$$35$9) (= lq_karg$36$lq_anf$36$$35$$35$7205759403792815346$35$$35$d5EK$35$$35$k_$35$$35$815 lq_anf$36$$35$$35$7205759403792815346$35$$35$d5EK) (= lq_karg$36$lq_anf$36$$35$$35$7205759403792815347$35$$35$d5EL$35$$35$k_$35$$35$815 lq_anf$36$$35$$35$7205759403792815347$35$$35$d5EL) (= lq_karg$36$lq_anf$36$$35$$35$7205759403792815348$35$$35$d5EM$35$$35$k_$35$$35$815 lq_anf$36$$35$$35$7205759403792815348$35$$35$d5EM) (= lq_karg$36$lq_anf$36$$35$$35$7205759403792815349$35$$35$d5EN$35$$35$k_$35$$35$815 lq_anf$36$$35$$35$7205759403792815349$35$$35$d5EN) (= lq_karg$36$n$35$$35$a1u8$35$$35$k_$35$$35$815 n$35$$35$a1u8))))) b$36$$35$$35$71 b$36$$35$$35$143 b$36$$35$$35$144 b$36$$35$$35$145 b$36$$35$$35$146 b$36$$35$$35$147 b$36$$35$$35$148 b$36$$35$$35$86))
(push 1)
(assert (not (= VV$35$$35$F$35$$35$7 n$35$$35$a1u8)))
(check-sat)
; SMT Says: Unsat
(pop 1)
(pop 1)
(push 1)
(assert (and (exists ((lq_karg$36$lq_anf$36$$35$$35$7205759403792815347$35$$35$d5EL$35$$35$k_$35$$35$815 Int) (lq_karg$36$lq_anf$36$$35$$35$7205759403792815346$35$$35$d5EK$35$$35$k_$35$$35$815 Int) (lq_karg$36$VV$35$$35$814$35$$35$k_$35$$35$815 Int) (lq_karg$36$lq_anf$36$$35$$35$7205759403792815349$35$$35$d5EN$35$$35$k_$35$$35$815 Bool) (lq_karg$36$n$35$$35$a1u8$35$$35$k_$35$$35$815 Int) (lq_karg$36$lq_anf$36$$35$$35$7205759403792815348$35$$35$d5EM$35$$35$k_$35$$35$815 Bool)) (and (= lq_karg$36$VV$35$$35$814$35$$35$k_$35$$35$815 VV$35$$35$F$35$$35$8) (= lq_karg$36$lq_anf$36$$35$$35$7205759403792815346$35$$35$d5EK$35$$35$k_$35$$35$815 lq_anf$36$$35$$35$7205759403792815346$35$$35$d5EK) (= lq_karg$36$lq_anf$36$$35$$35$7205759403792815347$35$$35$d5EL$35$$35$k_$35$$35$815 lq_anf$36$$35$$35$7205759403792815347$35$$35$d5EL) (= lq_karg$36$lq_anf$36$$35$$35$7205759403792815348$35$$35$d5EM$35$$35$k_$35$$35$815 lq_anf$36$$35$$35$7205759403792815348$35$$35$d5EM) (= lq_karg$36$lq_anf$36$$35$$35$7205759403792815349$35$$35$d5EN$35$$35$k_$35$$35$815 lq_anf$36$$35$$35$7205759403792815349$35$$35$d5EN) (= lq_karg$36$n$35$$35$a1u8$35$$35$k_$35$$35$815 n$35$$35$a1u8) (exists ((VV$35$$35$F$35$$35$9 Int)) (and (= VV$35$$35$F$35$$35$9 n$35$$35$a1u8) (= lq_karg$36$VV$35$$35$814$35$$35$k_$35$$35$815 VV$35$$35$F$35$$35$9) (= lq_karg$36$lq_anf$36$$35$$35$7205759403792815346$35$$35$d5EK$35$$35$k_$35$$35$815 lq_anf$36$$35$$35$7205759403792815346$35$$35$d5EK) (= lq_karg$36$lq_anf$36$$35$$35$7205759403792815347$35$$35$d5EL$35$$35$k_$35$$35$815 lq_anf$36$$35$$35$7205759403792815347$35$$35$d5EL) (= lq_karg$36$lq_anf$36$$35$$35$7205759403792815348$35$$35$d5EM$35$$35$k_$35$$35$815 lq_anf$36$$35$$35$7205759403792815348$35$$35$d5EM) (= lq_karg$36$lq_anf$36$$35$$35$7205759403792815349$35$$35$d5EN$35$$35$k_$35$$35$815 lq_anf$36$$35$$35$7205759403792815349$35$$35$d5EN) (= lq_karg$36$n$35$$35$a1u8$35$$35$k_$35$$35$815 n$35$$35$a1u8))))) b$36$$35$$35$71 b$36$$35$$35$143 b$36$$35$$35$144 b$36$$35$$35$145 b$36$$35$$35$146 b$36$$35$$35$147 b$36$$35$$35$148 b$36$$35$$35$86))
(push 1)
(assert (not (<= 2 VV$35$$35$F$35$$35$8)))
(check-sat)
; SMT Says: Unsat
(pop 1)
(pop 1)
(push 1)
(assert (and true b$36$$35$$35$128 b$36$$35$$35$129 b$36$$35$$35$131 b$36$$35$$35$132 b$36$$35$$35$71 b$36$$35$$35$140 b$36$$35$$35$141 b$36$$35$$35$181 b$36$$35$$35$86 b$36$$35$$35$127))
(push 1)
(assert (not (>= VV$35$$35$F$35$$35$12 0)))
(check-sat)
; SMT Says: Unsat
(pop 1)
(pop 1)
(push 1)
(assert (and true b$36$$35$$35$128 b$36$$35$$35$129 b$36$$35$$35$131 b$36$$35$$35$132 b$36$$35$$35$133 b$36$$35$$35$134 b$36$$35$$35$71 b$36$$35$$35$135 b$36$$35$$35$136 b$36$$35$$35$137 b$36$$35$$35$138 b$36$$35$$35$139 b$36$$35$$35$86 b$36$$35$$35$182 b$36$$35$$35$127))
(push 1)
(assert (not (>= VV$35$$35$F$35$$35$13 0)))
(check-sat)
; SMT Says: Unsat
(pop 1)
(pop 1)
(push 1)
(assert (and true b$36$$35$$35$128 b$36$$35$$35$129 b$36$$35$$35$131 b$36$$35$$35$132 b$36$$35$$35$133 b$36$$35$$35$134 b$36$$35$$35$71 b$36$$35$$35$135 b$36$$35$$35$136 b$36$$35$$35$137 b$36$$35$$35$138 b$36$$35$$35$86 b$36$$35$$35$183 b$36$$35$$35$127))
(push 1)
(assert (not (>= VV$35$$35$F$35$$35$14 0)))
(check-sat)
; SMT Says: Unsat
(pop 1)
(pop 1)
(push 1)
(assert (and true b$36$$35$$35$99 b$36$$35$$35$100 b$36$$35$$35$101 b$36$$35$$35$102 b$36$$35$$35$71 b$36$$35$$35$103 b$36$$35$$35$104 b$36$$35$$35$105 b$36$$35$$35$106 b$36$$35$$35$107 b$36$$35$$35$108 b$36$$35$$35$109 b$36$$35$$35$110 b$36$$35$$35$111 b$36$$35$$35$112 b$36$$35$$35$113 b$36$$35$$35$114 b$36$$35$$35$117 b$36$$35$$35$86 b$36$$35$$35$185))
(push 1)
(assert (not false))
(check-sat)
; SMT Says: Unsat
(pop 1)
(pop 1)
(pop 1)
(pop 1)
